(set-info :source |printed by MathSAT|)
(declare-fun a_3 () (Array Int Int))
(declare-fun .x.11 () (Array Int Int))
(declare-fun .y.6 () Int)
(declare-fun .y.12 () Int)
(declare-fun .y.7 () Int)
(declare-fun .y.13 () Int)
(declare-fun .y.8 () Int)
(declare-fun .y.14 () Int)
(declare-fun b_1 () (Array Int Int))
(declare-fun .x.12 () (Array Int Int))
(declare-fun i_2 () Int)
(declare-fun .x.13 () Int)
(declare-fun j_3 () Int)
(declare-fun .x.14 () Int)
(declare-fun N_3 () Int)
(declare-fun .x.15 () Int)
(declare-fun .y.9 () Int)
(declare-fun .x.16 () Int)
(declare-fun .loc.10 () Bool)
(declare-fun .loc.15 () Bool)
(declare-fun .loc.11 () Bool)
(declare-fun .loc.16 () Bool)
(define-fun .def_8 () (Array Int Int) (! a_3 :next |.x.11|))
(define-fun .def_10 () Int (! .y.6 :next |.y.12|))
(define-fun .def_12 () Int (! .y.7 :next |.y.13|))
(define-fun .def_14 () Int (! .y.8 :next |.y.14|))
(define-fun .def_16 () (Array Int Int) (! b_1 :next |.x.12|))
(define-fun .def_18 () Int (! i_2 :next |.x.13|))
(define-fun .def_20 () Int (! j_3 :next |.x.14|))
(define-fun .def_22 () Int (! N_3 :next |.x.15|))
(define-fun .def_24 () Int (! .y.9 :next |.x.16|))
(define-fun .def_26 () Bool (! .loc.10 :next |.loc.15|))
(define-fun .def_28 () Bool (! .loc.11 :next |.loc.16|))
(define-fun .def_33 () Bool (not .def_26))
(define-fun .def_31 () Bool (not .def_28))
(define-fun .def_121 () Bool (and .def_31 .def_33))
(define-fun .def_120 () Bool (= .def_10 0))
(define-fun .def_122 () Bool (! (and .def_120 .def_121) :init true))
(define-fun .def_118 () Bool (= .def_8 .x.11))
(define-fun .def_109 () Bool (= .def_22 .x.16))
(define-fun .def_107 () Bool (= .x.15 0))
(define-fun .def_75 () Bool (= .x.13 0))
(define-fun .def_54 () Bool (<= .def_22 .def_18))
(define-fun .def_106 () Bool (and .def_54 .def_75))
(define-fun .def_108 () Bool (and .def_106 .def_107))
(define-fun .def_110 () Bool (and .def_108 .def_109))
(define-fun .def_111 () Bool (and .def_26 .def_110))
(define-fun .def_112 () Bool (and .def_31 .def_111))
(define-fun .def_103 () Bool (<= .def_24 .def_18))
(define-fun .def_104 () Bool (not .def_103))
(define-fun .def_93 () Int (select .def_16 .def_18))
(define-fun .def_94 () Int (* (- 1) .x.15))
(define-fun .def_98 () Int (+ .def_94 .def_93))
(define-fun .def_99 () Int (+ .def_22 .def_98))
(define-fun .def_100 () Int (+ .def_18 .def_99))
(define-fun .def_101 () Bool (= .def_100 0))
(define-fun .def_90 () Bool (and .def_28 .def_33))
(define-fun .def_89 () Bool (= .def_24 .x.16))
(define-fun .def_91 () Bool (and .def_89 .def_90))
(define-fun .def_60 () Int (* (- 1) .x.13))
(define-fun .def_61 () Int (+ .def_18 .def_60))
(define-fun .def_62 () Bool (= .def_61 (- 1)))
(define-fun .def_92 () Bool (and .def_62 .def_91))
(define-fun .def_102 () Bool (and .def_92 .def_101))
(define-fun .def_105 () Bool (and .def_102 .def_104))
(define-fun .def_113 () Bool (or .def_105 .def_112))
(define-fun .def_85 () Bool (= .def_16 .x.12))
(define-fun .def_53 () Bool (= .def_20 .x.14))
(define-fun .def_86 () Bool (and .def_53 .def_85))
(define-fun .def_87 () Bool (and .loc.16 .def_86))
(define-fun .def_30 () Bool (not .loc.15))
(define-fun .def_88 () Bool (and .def_30 .def_87))
(define-fun .def_114 () Bool (and .def_88 .def_113))
(define-fun .def_82 () Bool (= .def_12 .x.14))
(define-fun .def_80 () Bool (= .def_14 .x.15))
(define-fun .def_76 () Bool (and .def_31 .def_75))
(define-fun .def_77 () Bool (and .loc.15 .def_76))
(define-fun .def_78 () Bool (and .def_33 .def_77))
(define-fun .def_35 () Bool (not .loc.16))
(define-fun .def_79 () Bool (and .def_35 .def_78))
(define-fun .def_81 () Bool (and .def_79 .def_80))
(define-fun .def_83 () Bool (and .def_81 .def_82))
(define-fun .def_50 () Bool (<= .def_14 .def_10))
(define-fun .def_84 () Bool (and .def_50 .def_83))
(define-fun .def_115 () Bool (or .def_84 .def_114))
(define-fun .def_67 () Int (select .def_8 .def_18))
(define-fun .def_68 () Int (* (- 1) .def_20))
(define-fun .def_70 () Int (+ .def_68 .def_67))
(define-fun .def_71 () (Array Int Int) (store .def_16 .def_18 .def_70))
(define-fun .def_72 () Bool (= .x.12 .def_71))
(define-fun .def_65 () Bool (= .def_22 .x.15))
(define-fun .def_55 () Bool (not .def_54))
(define-fun .def_56 () Bool (and .def_53 .def_55))
(define-fun .def_57 () Bool (and .def_26 .def_56))
(define-fun .def_58 () Bool (and .def_31 .def_57))
(define-fun .def_59 () Bool (and .loc.15 .def_58))
(define-fun .def_63 () Bool (and .def_59 .def_62))
(define-fun .def_64 () Bool (and .def_35 .def_63))
(define-fun .def_66 () Bool (and .def_64 .def_65))
(define-fun .def_73 () Bool (and .def_66 .def_72))
(define-fun .def_116 () Bool (or .def_73 .def_115))
(define-fun .def_51 () Bool (not .def_50))
(define-fun .def_44 () Int (select .def_8 .def_10))
(define-fun .def_45 () Bool (<= .def_12 .def_44))
(define-fun .def_46 () Bool (not .def_45))
(define-fun .def_47 () Int (ite .def_46 .def_44 .def_12))
(define-fun .def_48 () Bool (= .y.13 .def_47))
(define-fun .def_40 () Int (* (- 1) .y.12))
(define-fun .def_41 () Int (+ .def_10 .def_40))
(define-fun .def_42 () Bool (= .def_41 (- 1)))
(define-fun .def_37 () Bool (= .def_14 .y.14))
(define-fun .def_32 () Bool (and .def_30 .def_31))
(define-fun .def_34 () Bool (and .def_32 .def_33))
(define-fun .def_36 () Bool (and .def_34 .def_35))
(define-fun .def_38 () Bool (and .def_36 .def_37))
(define-fun .def_43 () Bool (and .def_38 .def_42))
(define-fun .def_49 () Bool (and .def_43 .def_48))
(define-fun .def_52 () Bool (and .def_49 .def_51))
(define-fun .def_117 () Bool (or .def_52 .def_116))
(define-fun .def_119 () Bool (! (and .def_117 .def_118) :trans true))
(define-fun .def_123 () Bool (<= 0 .def_22))
(define-fun .def_124 () Bool (not .def_123))
(define-fun .def_125 () Bool (and .def_103 .def_124))
(define-fun .def_126 () Bool (and .def_90 .def_125))
(define-fun .def_127 () Bool (! (not .def_126) :invar-property 0))
(assert true)
